n=19;
a=[7,6,4,8,3,7,6,3,7,4,7,9,5,3,5,10,6,3,7];
b=[0,0,0,3,0,1,0,0,3,0,0,4,0,0,0,0,1,0,4,0,0,4,4,0,0,3,3,0,0,0,0,0,0,0,1,0,0,0,0,4,0,0,0,0,0,0,0,3,0,0,0,0,0,0,0,0,1,3,4,0,0,0,1,0,0,2,3,3,0,0,0,0,0,0,1,0,0,0,0,0,0,2,0,0,0,0,0,0,0,1,0,0,0,0,0,1,0,0,1,2,0,0,2,0,0,4,0,0,0,4,0,0,0,0,0,3,0,0,0,0,0,0,0,4,0,1,0,2,0,0,0,2,0,0,3,0,0,0,2,0,0,0,2,0,3,3,0,0,0,0,0,0,3,0,0,2,0,0,0,0,0,0,0,0,0,0,0,0,0,0,0,0,0,3,3,0,0,4,2,0,0,4,0,0,0,0,0,0,0,0,0,0,0,3,0,4,0,0,0,4,0,0,0,0,1,0,0,0,0,4,0,0,0,0,0,1,3,0,0,0,0,0,3,0,0,0,0,0,0,0,0,0,0,0,0,3,0,0,0,0,0,0,0,0,0,0,0,0,0,0,0,1,0,2,0,0,0,0,3,0,0,0,0,0,0,0,0,0,0,0,0,4,0,0,0,0,1,0,0,0,0,0,4,0,3,0,1,0,0,0,0,0,0,0,0,0,0,0,0,0,0,1,2,0,1,0,0,0,0,0,0,0,0,0,0,0,0,0,4,1,0,2,0,0,0,0,1,0,0,2,0,0,0,0,0,0,0,0,2,2,0,0,4,0,1,0,0,0,0,0,0,0,0,0,0,0,3,0,0,0,0];
